language ESSENCE' 1.0

letting fixed be 
[
    [9,6,0,0,0,1,3,7,0],
    [0,0,2,0,9,7,8,6,0],
    [0,5,7,6,4,0,0,0,0],
    [0,2,0,0,5,0,7,0,0],
    [7,0,0,1,0,6,5,0,2],
    [5,0,0,0,7,0,4,3,0],
    [0,7,0,0,6,0,9,5,0],
    [0,3,5,0,1,0,6,0,7],
    [6,0,9,7,0,5,0,4,0]
]